(set-logic QF_NRA)
(set-info :source |Benchmarks generated from hycomp (https://es-static.fbk.eu/tools/hycomp/). BMC instances of non-linear hybrid automata taken from: Alessandro Cimatti, Sergio Mover, Stefano Tonetta, A quantifier-free SMT encoding of non-linear hybrid automata, FMCAD 2012 and Alessandro Cimatti, Sergio Mover, Stefano Tonetta, Quantier-free encoding of invariants for Hybrid Systems, Formal Methods in System Design. This instance solves a BMC problem of depth 1 and uses the encoding obtained with quantifier elimination using redlog encoding. Contacts: Sergio Mover (mover@fbk.eu), Stefano Tonetta (tonettas@fbk.eu), Alessandro Cimatti (cimatti@fbk.eu).|)
(set-info :smt-lib-version 2.0)
(set-info :category "industrial")
(set-info :status unsat)
;; MathSAT API call trace
;; generated on Mon Mar 19 10:39:53 2012
(declare-fun b.EVENT.1__AT0 () Bool)
(declare-fun b.time__AT0 () Real)
(declare-fun b.speed_x__AT1 () Real)
(declare-fun b.speed_y__AT1 () Real)
(declare-fun b.y__AT0 () Real)
(declare-fun b.counter.0__AT0 () Bool)
(declare-fun b.counter.1__AT0 () Bool)
(declare-fun b.y__AT2 () Real)
(declare-fun g__AT0 () Real)
(declare-fun b.counter.2__AT0 () Bool)
(declare-fun b.time__AT1 () Real)
(declare-fun b.delta__AT1 () Real)
(declare-fun b.delta__AT0 () Real)
(declare-fun b.event_is_timed__AT0 () Bool)
(declare-fun b.EVENT.0__AT0 () Bool)
(declare-fun b.y__AT1 () Real)
(declare-fun b.counter.0__AT1 () Bool)
(declare-fun b.counter.1__AT1 () Bool)
(declare-fun b.counter.2__AT1 () Bool)
(declare-fun b.counter.3__AT1 () Bool)
(declare-fun speed_loss__AT0 () Real)
(declare-fun b.EVENT.0__AT1 () Bool)
(declare-fun b.EVENT.1__AT1 () Bool)
(declare-fun b.counter.3__AT0 () Bool)
(declare-fun b.x__AT0 () Real)
(declare-fun b.speed_y__AT0 () Real)
(declare-fun b.speed_x__AT0 () Real)
(declare-fun b.x__AT1 () Real)
(declare-fun b.event_is_timed__AT1 () Bool)
(assert (let ((.def_415 (= b.y__AT1 b.y__AT2)))
(let ((.def_416 (not .def_415)))
(let ((.def_329 (* g__AT0 b.delta__AT1)))
(let ((.def_403 (<= b.speed_y__AT1 .def_329)))
(let ((.def_404 (not .def_403)))
(let ((.def_332 (* 2.0 b.speed_y__AT1)))
(let ((.def_333 (* b.delta__AT1 .def_332)))
(let ((.def_330 (* b.delta__AT1 .def_329)))
(let ((.def_331 (* (- 1.0) .def_330)))
(let ((.def_334 (+ .def_331 .def_333)))
(let ((.def_335 (* 2.0 b.y__AT1)))
(let ((.def_337 (+ .def_335 .def_334)))
(let ((.def_395 (= .def_337 0.0 )))
(let ((.def_396 (not .def_395)))
(let ((.def_405 (or .def_396 .def_404)))
(let ((.def_108 (* 2.0 g__AT0)))
(let ((.def_382 (* .def_108 b.speed_y__AT1)))
(let ((.def_383 (* b.delta__AT1 .def_382)))
(let ((.def_128 (* g__AT0 g__AT0)))
(let ((.def_379 (* .def_128 b.delta__AT1)))
(let ((.def_380 (* b.delta__AT1 .def_379)))
(let ((.def_381 (* (- 1.0) .def_380)))
(let ((.def_384 (+ .def_381 .def_383)))
(let ((.def_364 (* .def_108 b.y__AT1)))
(let ((.def_385 (+ .def_364 .def_384)))
(let ((.def_390 (<= 0.0 .def_385)))
(let ((.def_342 (* g__AT0 b.speed_y__AT1)))
(let ((.def_387 (<= .def_379 .def_342)))
(let ((.def_391 (or .def_387 .def_390)))
(let ((.def_406 (and .def_391 .def_405)))
(let ((.def_344 (* b.speed_y__AT1 b.speed_y__AT1)))
(let ((.def_365 (+ .def_344 .def_364)))
(let ((.def_400 (<= .def_365 0.0 )))
(let ((.def_401 (not .def_400)))
(let ((.def_124 (<= 0.0 g__AT0)))
(let ((.def_125 (not .def_124)))
(let ((.def_402 (or .def_125 .def_401)))
(let ((.def_407 (or .def_402 .def_406)))
(let ((.def_369 (* g__AT0 b.y__AT1)))
(let ((.def_373 (<= .def_369 0.0 )))
(let ((.def_372 (<= .def_342 0.0 )))
(let ((.def_374 (and .def_372 .def_373)))
(let ((.def_408 (or .def_374 .def_407)))
(let ((.def_393 (<= .def_329 b.speed_y__AT1)))
(let ((.def_394 (not .def_393)))
(let ((.def_397 (or .def_394 .def_396)))
(let ((.def_386 (<= .def_385 0.0 )))
(let ((.def_388 (and .def_386 .def_387)))
(let ((.def_389 (or .def_125 .def_388)))
(let ((.def_392 (and .def_389 .def_391)))
(let ((.def_398 (and .def_392 .def_397)))
(let ((.def_376 (= .def_365 0.0 )))
(let ((.def_377 (and .def_125 .def_376)))
(let ((.def_370 (<= 0.0 .def_369)))
(let ((.def_116 (<= g__AT0 0.0 )))
(let ((.def_117 (not .def_116)))
(let ((.def_371 (and .def_117 .def_370)))
(let ((.def_375 (or .def_371 .def_374)))
(let ((.def_378 (or .def_375 .def_377)))
(let ((.def_399 (or .def_378 .def_398)))
(let ((.def_409 (and .def_399 .def_408)))
(let ((.def_366 (<= 0.0 .def_365)))
(let ((.def_367 (not .def_366)))
(let ((.def_91 (= g__AT0 0.0 )))
(let ((.def_368 (or .def_91 .def_367)))
(let ((.def_410 (or .def_368 .def_409)))
(let ((.def_357 (* b.speed_y__AT1 b.delta__AT1)))
(let ((.def_358 (+ b.y__AT1 .def_357)))
(let ((.def_359 (= .def_358 0.0 )))
(let ((.def_360 (not .def_359)))
(let ((.def_354 (* b.delta__AT1 .def_344)))
(let ((.def_349 (* b.y__AT1 b.speed_y__AT1)))
(let ((.def_355 (+ .def_349 .def_354)))
(let ((.def_356 (<= .def_355 0.0 )))
(let ((.def_361 (and .def_356 .def_360)))
(let ((.def_352 (= b.speed_y__AT1 0.0 )))
(let ((.def_350 (<= 0.0 .def_349)))
(let ((.def_345 (* b.speed_y__AT1 .def_344)))
(let ((.def_343 (* b.y__AT1 .def_342)))
(let ((.def_346 (+ .def_343 .def_345)))
(let ((.def_347 (<= .def_346 0.0 )))
(let ((.def_92 (not .def_91)))
(let ((.def_348 (or .def_92 .def_347)))
(let ((.def_351 (or .def_348 .def_350)))
(let ((.def_353 (or .def_351 .def_352)))
(let ((.def_362 (or .def_353 .def_361)))
(let ((.def_339 (<= 0.0 b.delta__AT1)))
(let ((.def_340 (not .def_339)))
(let ((.def_338 (<= 0.0 .def_337)))
(let ((.def_341 (or .def_338 .def_340)))
(let ((.def_363 (and .def_341 .def_362)))
(let ((.def_411 (and .def_363 .def_410)))
(let ((.def_317 (not b.EVENT.0__AT1)))
(let ((.def_315 (not b.EVENT.1__AT1)))
(let ((.def_326 (and .def_315 .def_317)))
(let ((.def_412 (and .def_326 .def_411)))
(let ((.def_413 (not .def_412)))
(let ((.def_417 (or .def_413 .def_416)))
(let ((.def_327 (not .def_326)))
(let ((.def_418 (or .def_327 .def_417)))
(let ((.def_320 (<= 0.0 b.y__AT1)))
(let ((.def_60 (<= speed_loss__AT0 (/ 1 2))))
(let ((.def_57 (<= (/ 1 10) speed_loss__AT0)))
(let ((.def_61 (and .def_57 .def_60)))
(let ((.def_52 (<= g__AT0 10.0 )))
(let ((.def_51 (<= 8.0 g__AT0)))
(let ((.def_53 (and .def_51 .def_52)))
(let ((.def_62 (and .def_53 .def_61)))
(let ((.def_321 (and .def_62 .def_320)))
(let ((.def_318 (or .def_315 .def_317)))
(let ((.def_6 (not b.counter.0__AT1)))
(let ((.def_4 (not b.counter.1__AT1)))
(let ((.def_308 (or .def_4 .def_6)))
(let ((.def_312 (or b.counter.3__AT1 .def_308)))
(let ((.def_309 (or b.counter.2__AT1 .def_308)))
(let ((.def_9 (not b.counter.2__AT1)))
(let ((.def_307 (or .def_6 .def_9)))
(let ((.def_310 (and .def_307 .def_309)))
(let ((.def_231 (not b.counter.3__AT1)))
(let ((.def_311 (or .def_231 .def_310)))
(let ((.def_313 (and .def_311 .def_312)))
(let ((.def_319 (and .def_313 .def_318)))
(let ((.def_322 (and .def_319 .def_321)))
(let ((.def_82 (<= 0.0 b.delta__AT0)))
(let ((.def_46 (not b.EVENT.0__AT0)))
(let ((.def_44 (not b.EVENT.1__AT0)))
(let ((.def_68 (and .def_44 .def_46)))
(let ((.def_69 (not .def_68)))
(let ((.def_303 (or .def_69 .def_82)))
(let ((.def_304 (or b.EVENT.1__AT0 .def_303)))
(let ((.def_253 (= b.counter.0__AT1 b.counter.0__AT0)))
(let ((.def_251 (= b.counter.1__AT1 b.counter.1__AT0)))
(let ((.def_249 (= b.counter.2__AT1 b.counter.2__AT0)))
(let ((.def_248 (= b.counter.3__AT0 b.counter.3__AT1)))
(let ((.def_250 (and .def_248 .def_249)))
(let ((.def_252 (and .def_250 .def_251)))
(let ((.def_254 (and .def_252 .def_253)))
(let ((.def_300 (or .def_69 .def_254)))
(let ((.def_301 (or b.EVENT.1__AT0 .def_300)))
(let ((.def_260 (= b.x__AT1 b.x__AT0)))
(let ((.def_165 (= b.y__AT0 b.y__AT1)))
(let ((.def_294 (and .def_165 .def_260)))
(let ((.def_181 (= b.speed_x__AT0 b.speed_x__AT1)))
(let ((.def_295 (and .def_181 .def_294)))
(let ((.def_247 (= b.speed_y__AT0 b.speed_y__AT1)))
(let ((.def_296 (and .def_247 .def_295)))
(let ((.def_291 (= b.delta__AT0 0.0 )))
(let ((.def_292 (and .def_68 .def_291)))
(let ((.def_293 (not .def_292)))
(let ((.def_297 (or .def_293 .def_296)))
(let ((.def_298 (or b.EVENT.1__AT0 .def_297)))
(let ((.def_271 (= b.time__AT0 b.time__AT1)))
(let ((.def_283 (and .def_260 .def_271)))
(let ((.def_284 (and .def_165 .def_283)))
(let ((.def_285 (and .def_181 .def_284)))
(let ((.def_286 (and .def_247 .def_285)))
(let ((.def_287 (and .def_254 .def_286)))
(let ((.def_288 (or .def_44 .def_287)))
(let ((.def_274 (* (- 1.0) b.time__AT1)))
(let ((.def_277 (+ b.delta__AT0 .def_274)))
(let ((.def_278 (+ b.time__AT0 .def_277)))
(let ((.def_279 (= .def_278 0.0 )))
(let ((.def_280 (or .def_69 .def_279)))
(let ((.def_281 (or b.EVENT.1__AT0 .def_280)))
(let ((.def_272 (or .def_68 .def_271)))
(let ((.def_273 (or b.EVENT.1__AT0 .def_272)))
(let ((.def_282 (and .def_273 .def_281)))
(let ((.def_289 (and .def_282 .def_288)))
(let ((.def_267 (= .def_69 b.event_is_timed__AT1)))
(let ((.def_265 (= b.event_is_timed__AT0 .def_68)))
(let ((.def_268 (and .def_265 .def_267)))
(let ((.def_255 (and .def_247 .def_254)))
(let ((.def_205 (<= 0.0 b.speed_y__AT0)))
(let ((.def_206 (not .def_205)))
(let ((.def_204 (= b.y__AT0 0.0 )))
(let ((.def_207 (and .def_204 .def_206)))
(let ((.def_256 (or .def_207 .def_255)))
(let ((.def_222 (or .def_6 b.counter.0__AT0)))
(let ((.def_27 (not b.counter.0__AT0)))
(let ((.def_221 (or b.counter.0__AT1 .def_27)))
(let ((.def_223 (and .def_221 .def_222)))
(let ((.def_224 (and .def_4 .def_223)))
(let ((.def_225 (or b.counter.1__AT0 .def_224)))
(let ((.def_25 (not b.counter.1__AT0)))
(let ((.def_220 (or b.counter.1__AT1 .def_25)))
(let ((.def_226 (and .def_220 .def_225)))
(let ((.def_239 (and .def_9 .def_226)))
(let ((.def_240 (or b.counter.2__AT0 .def_239)))
(let ((.def_234 (and .def_4 .def_27)))
(let ((.def_235 (or b.counter.1__AT0 .def_234)))
(let ((.def_236 (and .def_220 .def_235)))
(let ((.def_237 (and b.counter.2__AT1 .def_236)))
(let ((.def_30 (not b.counter.2__AT0)))
(let ((.def_238 (or .def_30 .def_237)))
(let ((.def_241 (and .def_238 .def_240)))
(let ((.def_242 (and b.counter.3__AT1 .def_241)))
(let ((.def_243 (or b.counter.3__AT0 .def_242)))
(let ((.def_227 (and b.counter.2__AT1 .def_226)))
(let ((.def_228 (or b.counter.2__AT0 .def_227)))
(let ((.def_216 (or b.counter.1__AT1 b.counter.1__AT0)))
(let ((.def_214 (and .def_4 b.counter.0__AT1)))
(let ((.def_215 (or .def_25 .def_214)))
(let ((.def_217 (and .def_215 .def_216)))
(let ((.def_218 (and .def_9 .def_217)))
(let ((.def_219 (or .def_30 .def_218)))
(let ((.def_229 (and .def_219 .def_228)))
(let ((.def_232 (and .def_229 .def_231)))
(let ((.def_33 (not b.counter.3__AT0)))
(let ((.def_233 (or .def_33 .def_232)))
(let ((.def_244 (and .def_233 .def_243)))
(let ((.def_211 (* (- 1.0) b.speed_y__AT0)))
(let ((.def_209 (* (- 1.0) speed_loss__AT0)))
(let ((.def_210 (+ 1.0 .def_209)))
(let ((.def_212 (* .def_210 .def_211)))
(let ((.def_213 (= b.speed_y__AT1 .def_212)))
(let ((.def_245 (and .def_213 .def_244)))
(let ((.def_208 (not .def_207)))
(let ((.def_246 (or .def_208 .def_245)))
(let ((.def_257 (and .def_246 .def_256)))
(let ((.def_258 (and .def_165 .def_257)))
(let ((.def_259 (and .def_181 .def_258)))
(let ((.def_261 (and .def_259 .def_260)))
(let ((.def_262 (or .def_68 .def_261)))
(let ((.def_263 (or b.EVENT.1__AT0 .def_262)))
(let ((.def_192 (* b.delta__AT0 b.delta__AT0)))
(let ((.def_183 (* (- 1.0) g__AT0)))
(let ((.def_191 (* (/ 1 2) .def_183)))
(let ((.def_193 (* .def_191 .def_192)))
(let ((.def_195 (* (- 1.0) b.y__AT1)))
(let ((.def_198 (+ .def_195 .def_193)))
(let ((.def_101 (* b.speed_y__AT0 b.delta__AT0)))
(let ((.def_199 (+ .def_101 .def_198)))
(let ((.def_200 (+ b.y__AT0 .def_199)))
(let ((.def_201 (= .def_200 0.0 )))
(let ((.def_186 (* (- 1.0) b.speed_y__AT1)))
(let ((.def_184 (* b.delta__AT0 .def_183)))
(let ((.def_187 (+ .def_184 .def_186)))
(let ((.def_188 (+ b.speed_y__AT0 .def_187)))
(let ((.def_189 (= .def_188 0.0 )))
(let ((.def_173 (* (- 1.0) b.x__AT1)))
(let ((.def_177 (+ .def_173 b.x__AT0)))
(let ((.def_171 (* b.delta__AT0 b.speed_x__AT0)))
(let ((.def_178 (+ .def_171 .def_177)))
(let ((.def_179 (= .def_178 0.0 )))
(let ((.def_182 (and .def_179 .def_181)))
(let ((.def_190 (and .def_182 .def_189)))
(let ((.def_202 (and .def_190 .def_201)))
(let ((.def_203 (or .def_69 .def_202)))
(let ((.def_264 (and .def_203 .def_263)))
(let ((.def_269 (and .def_264 .def_268)))
(let ((.def_290 (and .def_269 .def_289)))
(let ((.def_299 (and .def_290 .def_298)))
(let ((.def_302 (and .def_299 .def_301)))
(let ((.def_305 (and .def_302 .def_304)))
(let ((.def_306 (and .def_44 .def_305)))
(let ((.def_323 (and .def_306 .def_322)))
(let ((.def_28 (and .def_25 .def_27)))
(let ((.def_31 (and .def_28 .def_30)))
(let ((.def_324 (and .def_31 .def_323)))
(let ((.def_166 (not .def_165)))
(let ((.def_71 (* g__AT0 b.delta__AT0)))
(let ((.def_153 (<= b.speed_y__AT0 .def_71)))
(let ((.def_154 (not .def_153)))
(let ((.def_75 (* 2.0 b.speed_y__AT0)))
(let ((.def_76 (* b.delta__AT0 .def_75)))
(let ((.def_72 (* b.delta__AT0 .def_71)))
(let ((.def_74 (* (- 1.0) .def_72)))
(let ((.def_77 (+ .def_74 .def_76)))
(let ((.def_78 (* 2.0 b.y__AT0)))
(let ((.def_80 (+ .def_78 .def_77)))
(let ((.def_145 (= .def_80 0.0 )))
(let ((.def_146 (not .def_145)))
(let ((.def_155 (or .def_146 .def_154)))
(let ((.def_132 (* b.speed_y__AT0 .def_108)))
(let ((.def_133 (* b.delta__AT0 .def_132)))
(let ((.def_129 (* b.delta__AT0 .def_128)))
(let ((.def_130 (* b.delta__AT0 .def_129)))
(let ((.def_131 (* (- 1.0) .def_130)))
(let ((.def_134 (+ .def_131 .def_133)))
(let ((.def_109 (* b.y__AT0 .def_108)))
(let ((.def_135 (+ .def_109 .def_134)))
(let ((.def_140 (<= 0.0 .def_135)))
(let ((.def_85 (* b.speed_y__AT0 g__AT0)))
(let ((.def_137 (<= .def_129 .def_85)))
(let ((.def_141 (or .def_137 .def_140)))
(let ((.def_156 (and .def_141 .def_155)))
(let ((.def_87 (* b.speed_y__AT0 b.speed_y__AT0)))
(let ((.def_110 (+ .def_87 .def_109)))
(let ((.def_150 (<= .def_110 0.0 )))
(let ((.def_151 (not .def_150)))
(let ((.def_152 (or .def_125 .def_151)))
(let ((.def_157 (or .def_152 .def_156)))
(let ((.def_114 (* b.y__AT0 g__AT0)))
(let ((.def_120 (<= .def_114 0.0 )))
(let ((.def_119 (<= .def_85 0.0 )))
(let ((.def_121 (and .def_119 .def_120)))
(let ((.def_158 (or .def_121 .def_157)))
(let ((.def_143 (<= .def_71 b.speed_y__AT0)))
(let ((.def_144 (not .def_143)))
(let ((.def_147 (or .def_144 .def_146)))
(let ((.def_136 (<= .def_135 0.0 )))
(let ((.def_138 (and .def_136 .def_137)))
(let ((.def_139 (or .def_125 .def_138)))
(let ((.def_142 (and .def_139 .def_141)))
(let ((.def_148 (and .def_142 .def_147)))
(let ((.def_123 (= .def_110 0.0 )))
(let ((.def_126 (and .def_123 .def_125)))
(let ((.def_115 (<= 0.0 .def_114)))
(let ((.def_118 (and .def_115 .def_117)))
(let ((.def_122 (or .def_118 .def_121)))
(let ((.def_127 (or .def_122 .def_126)))
(let ((.def_149 (or .def_127 .def_148)))
(let ((.def_159 (and .def_149 .def_158)))
(let ((.def_111 (<= 0.0 .def_110)))
(let ((.def_112 (not .def_111)))
(let ((.def_113 (or .def_91 .def_112)))
(let ((.def_160 (or .def_113 .def_159)))
(let ((.def_102 (+ b.y__AT0 .def_101)))
(let ((.def_103 (= .def_102 0.0 )))
(let ((.def_104 (not .def_103)))
(let ((.def_98 (* b.delta__AT0 .def_87)))
(let ((.def_94 (* b.y__AT0 b.speed_y__AT0)))
(let ((.def_99 (+ .def_94 .def_98)))
(let ((.def_100 (<= .def_99 0.0 )))
(let ((.def_105 (and .def_100 .def_104)))
(let ((.def_95 (<= 0.0 .def_94)))
(let ((.def_88 (* b.speed_y__AT0 .def_87)))
(let ((.def_86 (* b.y__AT0 .def_85)))
(let ((.def_89 (+ .def_86 .def_88)))
(let ((.def_90 (<= .def_89 0.0 )))
(let ((.def_93 (or .def_90 .def_92)))
(let ((.def_96 (or .def_93 .def_95)))
(let ((.def_22 (= b.speed_y__AT0 0.0 )))
(let ((.def_97 (or .def_22 .def_96)))
(let ((.def_106 (or .def_97 .def_105)))
(let ((.def_83 (not .def_82)))
(let ((.def_81 (<= 0.0 .def_80)))
(let ((.def_84 (or .def_81 .def_83)))
(let ((.def_107 (and .def_84 .def_106)))
(let ((.def_161 (and .def_107 .def_160)))
(let ((.def_162 (and .def_68 .def_161)))
(let ((.def_163 (not .def_162)))
(let ((.def_167 (or .def_163 .def_166)))
(let ((.def_168 (or .def_69 .def_167)))
(let ((.def_63 (<= 0.0 b.y__AT0)))
(let ((.def_64 (and .def_62 .def_63)))
(let ((.def_47 (or .def_44 .def_46)))
(let ((.def_37 (or .def_25 .def_27)))
(let ((.def_41 (or b.counter.3__AT0 .def_37)))
(let ((.def_38 (or b.counter.2__AT0 .def_37)))
(let ((.def_36 (or .def_27 .def_30)))
(let ((.def_39 (and .def_36 .def_38)))
(let ((.def_40 (or .def_33 .def_39)))
(let ((.def_42 (and .def_40 .def_41)))
(let ((.def_48 (and .def_42 .def_47)))
(let ((.def_65 (and .def_48 .def_64)))
(let ((.def_34 (and .def_31 .def_33)))
(let ((.def_19 (= b.y__AT0 10.0 )))
(let ((.def_14 (= b.time__AT0 0.0 )))
(let ((.def_16 (and .def_14 b.event_is_timed__AT0)))
(let ((.def_20 (and .def_16 .def_19)))
(let ((.def_23 (and .def_20 .def_22)))
(let ((.def_35 (and .def_23 .def_34)))
(let ((.def_66 (and .def_35 .def_65)))
(let ((.def_7 (and .def_4 .def_6)))
(let ((.def_10 (and .def_7 .def_9)))
(let ((.def_11 (not .def_10)))
(let ((.def_67 (and .def_11 .def_66)))
(let ((.def_169 (and .def_67 .def_168)))
(let ((.def_325 (and .def_169 .def_324)))
(let ((.def_419 (and .def_325 .def_418)))
.def_419))))))))))))))))))))))))))))))))))))))))))))))))))))))))))))))))))))))))))))))))))))))))))))))))))))))))))))))))))))))))))))))))))))))))))))))))))))))))))))))))))))))))))))))))))))))))))))))))))))))))))))))))))))))))))))))))))))))))))))))))))))))))))))))))))))))))))))))))))))))))))))))))))))))))))))))))))))))))))))))))))))))))))))))))))))))))))))))))))))))))))))))))))))
(check-sat)
(exit)
